certificates/rado_a7_c59_N17.cnf
c Rad2 upper bound instance: x1 + 7*x2 - x3 = 59, interval [1,17]
p cnf 17 78
1 5 9 0
-1 -5 -9 0
1 10 12 0
-1 -10 -12 0
2 6 9 0
-2 -6 -9 0
2 10 13 0
-2 -10 -13 0
3 7 9 0
-3 -7 -9 0
3 10 14 0
-3 -10 -14 0
1 4 8 0
-1 -4 -8 0
4 8 9 0
-4 -8 -9 0
4 10 15 0
-4 -10 -15 0
2 5 8 0
-2 -5 -8 0
5 9 0
-5 -9 0
5 10 16 0
-5 -10 -16 0
3 6 8 0
-3 -6 -8 0
6 9 10 0
-6 -9 -10 0
6 10 17 0
-6 -10 -17 0
4 7 8 0
-4 -7 -8 0
7 9 11 0
-7 -9 -11 0
5 8 0
-5 -8 0
8 9 12 0
-8 -9 -12 0
6 8 9 0
-6 -8 -9 0
9 13 0
-9 -13 0
7 8 10 0
-7 -8 -10 0
9 10 14 0
-9 -10 -14 0
1 7 11 0
-1 -7 -11 0
8 11 0
-8 -11 0
9 11 15 0
-9 -11 -15 0
2 7 12 0
-2 -7 -12 0
9 12 16 0
-9 -12 -16 0
3 7 13 0
-3 -7 -13 0
8 10 13 0
-8 -10 -13 0
9 13 17 0
-9 -13 -17 0
4 7 14 0
-4 -7 -14 0
8 11 14 0
-8 -11 -14 0
5 7 15 0
-5 -7 -15 0
8 12 15 0
-8 -12 -15 0
6 7 16 0
-6 -7 -16 0
8 13 16 0
-8 -13 -16 0
7 17 0
-7 -17 0
8 14 17 0
-8 -14 -17 0
