certificates/rado_a7_c59_N17.drat
8 -16 7 0
-8 -17 0
-17 0
7 0
-8 16 0
8 0
-5 0
-11 0
-4 0
-10 0
16 0
9 0
15 0
6 0
0
